Route #1: 0 33 20 21 5 18 19 14 28 23 0
Route #2: 0 17 39 7 16 15 36 8 31 0
Route #3: 0 34 38 12 2 1 37 10 0
Route #4: 0 9 26 42 6 24 22 0
Route #5: 0 3 11 13 30 29 32 25 27 0
Route #6: 0 40 41 35 4 0
Cost 770:
